CapLotSizing_PM/src/Instancias/NCLSHT/12i6p2m/NBA09.OUT
 CG ITER, OVMR, OVMRUB =           1   16639.9980469   16639.9980469
 CG ITER, OVMR, OVMRUB =           2   16640.0000000   16639.9980469
 CG ITER, OVMR, OVMRUB =           3   16452.2949219   16452.2968750
 CG ITER, OVMR, OVMRUB =           4   16452.2949219   16452.2968750
 CG ITER, OVMR, OVMRUB =           5   16146.7041016   16452.2968750
 CG ITER, OVMR, OVMRUB =           6   16034.0595703   16452.2968750
 CG ITER, OVMR, OVMRUB =           7   15956.0595703   16452.2968750
 CG ITER, OVMR, OVMRUB =           8   15908.0214844   16452.2968750
 CG ITER, OVMR, OVMRUB =           9   15885.1503906   16452.2968750
 CG ITER, OVMR, OVMRUB =          10   15853.5761719   16452.2968750
 CG ITER, OVMR, OVMRUB =          11   15833.7001953   16452.2968750
 CG ITER, OVMR, OVMRUB =          12   15820.0634766   16452.2968750
 CG ITER, OVMR, OVMRUB =          13   15806.1523438   16452.2968750
 CG ITER, OVMR, OVMRUB =          14   15796.7314453   16452.2968750
 CG ITER, OVMR, OVMRUB =          15   15786.6074219   16452.2968750
 CG ITER, OVMR, OVMRUB =          16   15774.6757812   16452.2968750
 CG ITER, OVMR, OVMRUB =          17   15762.4794922   16452.2968750
 CG ITER, OVMR, OVMRUB =          18   15760.8603516   16452.2968750
 CG ITER, OVMR, OVMRUB =          19   15757.4228516   16452.2968750
 CG ITER, OVMR, OVMRUB =          20   15755.8349609   16452.2968750
 CG ITER, OVMR, OVMRUB =          21   15754.8554688   16452.2968750
 CG ITER, OVMR, OVMRUB =          22   15754.5078125   16452.2968750
 CG ITER, OVMR, OVMRUB =          23   15754.2021484   16447.8691406
 CG ITER, OVMR, OVMRUB =          24   15752.6093750   16447.8691406
 CG ITER, OVMR, OVMRUB =          25   15752.8154297   16447.8691406
 CG ITER, OVMR, OVMRUB =          26   15752.8496094   16447.8691406
 CG ITER, OVMR, OVMRUB =          27   15752.0468750   16447.8691406
 CG ITER, OVMR, OVMRUB =          28   15752.3486328   16447.8691406
 CG ITER, OVMR, OVMRUB =          29   15752.5761719   16447.8691406
 CG ITER, OVMR, OVMRUB =          30   15752.2802734   16330.9648438
 CG ITER, OVMR, OVMRUB =          31   15752.2763672   16254.5996094
 CG ITER, OVMR, OVMRUB =          32   15752.2597656   16254.5996094
 CG ITER, OVMR, OVMRUB =          33   15752.2626953   16254.5996094
 CG ITER, OVMR, OVMRUB =          34   15752.2929688   16254.5996094
 CG ITER, OVMR, OVMRUB =          35   15752.1132812   16254.5996094
 CG ITER, OVMR, OVMRUB =          36   15752.1132812   16254.5996094
OVLB =   15752.1132812 OVLUB =   16254.5996094 TIME =       8.1400003
